25 50
1 2 1
1 6 3
2 3 1
2 7 5
3 4 5
3 8 4
4 5 1
4 9 1
5 10 2
6 7 1
6 11 5
7 8 3
7 12 3
8 9 5
8 13 2
9 10 1
9 14 5
10 15 5
11 12 5
11 16 2
12 13 5
12 17 5
13 14 1
13 18 1
14 15 4
14 19 1
15 20 1
16 17 3
16 21 3
17 18 3
17 22 3
18 19 5
18 23 1
19 20 3
19 24 3
20 25 4
21 22 1
22 23 5
23 24 4
24 25 4
1 21 4
2 22 2
3 23 1
4 24 3
5 25 2
1 5 4
6 10 3
11 15 4
16 20 4
21 25 1
